c read Graph
c width = 291
c time = 466 ms
c width = 24
c time = 738 ms
c width = 22
c time = 879 ms
c width = 21
c time = 1602 ms
c width = 20
c time = 3605 ms
c width = 20
c time = 4096 ms
s td 244 21 304
b 1 1 2 20
b 2 2 3 20 21
b 3 17 18 37 38
b 4 3 20 21 39
b 5 17 37 38 57
b 6 248 267 268 287
b 7 266 284 285 303
b 8 248 268 287 288
b 9 266 284 302 303
b 10 3 4 5 23
b 11 3 5 22 23 40 58
b 12 5 22 23 40 42 58 60
b 13 5 23 40 42 58 60 78
b 14 5 23 42 58 60 78 96
b 15 5 23 25 42 43 60 78 96
b 16 5 25 42 43 60 62 78 80 96
b 17 5 25 43 60 62 78 80 96 98
b 18 5 25 43 62 78 80 96 98 116
b 19 5 25 43 45 62 63 80 96 98 116
b 20 5 25 45 62 63 80 83 96 98 102 116 120 136 138 156
b 21 62 63 80 83 98 100 102 116 120 136 138 156
b 22 62 63 80 82 83 100 102 120
b 23 82 100 101 102 120
b 24 62 80 81 82 100
b 25 80 98 100 116 118 120 136 138 156
b 26 118 136 137 138 156
b 27 98 116 117 118 136
b 28 100 118 119 120 138
b 29 80 98 99 100 118
b 30 5 9 25 29 45 49 63 67 83 85 96 102 103 116 120 136 138 156
b 31 5 9 25 29 45 49 63 65 67 83 85 103
b 32 65 83 84 85 103
b 33 45 63 64 65 83
b 34 5 9 25 29 45 47 49 65 67 85
b 35 47 65 66 67 85
b 36 5 9 25 27 29 45 47 65
b 37 27 45 46 47 65
b 38 9 27 28 29 47
b 39 5 7 9 25 27 45
b 40 7 8 9 27
b 41 7 25 26 27 45
b 42 5 6 7 25
b 43 29 47 48 49 67
b 44 9 29 49 67 85 96 102 103 116 120 123 136 138 141 156 159 176 177
b 45 102 103 120 123 138 140 141 156 159 176 177
b 46 102 103 120 122 123 140 141
b 47 102 120 121 122 140
b 48 120 138 140 156 158 159 176 177
b 49 120 138 139 140 158
b 50 138 156 157 158 176
b 51 9 29 49 67 85 96 103 105 116 123 136 141 156 159 176 177
b 52 9 29 49 67 85 96 105 116 123 136 141 156 159 176 177 195 215 235 255 275 293
b 53 96 116 136 156 172 176 192 195 212 213 215 235 255 275 293
b 54 96 116 136 156 172 174 176 192 195 212 213
b 55 96 116 136 154 156 172 174 192
b 56 136 154 155 156 174
b 57 96 116 134 136 154 172
b 58 96 115 116 134
b 59 134 153 154 172
b 60 116 134 135 136 154
b 61 154 172 173 174 192
b 62 156 174 176 192 194 195 212 213
b 63 156 174 175 176 194
b 64 174 192 193 194 212
b 65 172 192 195 212 213 215 235 253 255 271 275 289 293
b 66 235 253 255 271 273 275 289 293
b 67 255 273 274 275 293
b 68 235 253 254 255 273
b 69 253 271 273 289 291 293
b 70 271 289 290 291
b 71 273 291 292 293
b 72 253 271 272 273 291
b 73 172 192 195 212 213 215 233 235 253 271 289
b 74 195 213 214 215 233
b 75 215 233 234 235 253
b 76 172 192 212 213 233 251 253 271 289
b 77 172 192 212 213 231 233 251 271 289
b 78 172 192 212 231 248 249 251 271 289
b 79 172 192 212 230 231 248 249
b 80 172 192 210 212 230 248
b 81 210 229 230 248
b 82 172 191 192 210
b 83 192 210 211 212 230
b 84 231 248 249 251 269 271 289
b 85 248 249 269 288 289
b 86 248 249 268 269 288
b 87 251 269 270 271 289
b 88 231 249 250 251 269
b 89 213 231 232 233 251
b 90 233 251 252 253 271
b 91 9 29 49 67 85 105 123 141 159 177 195 197 215 235 255 275 293
b 92 177 195 196 197 215
b 93 9 29 49 67 85 105 123 141 159 177 197 215 217 235 255 275 293
b 94 197 215 216 217 235
b 95 9 29 49 67 85 105 123 141 159 177 197 217 235 237 255 275 293
b 96 9 29 49 67 85 105 123 141 159 177 197 217 237 255 257 275 293
b 97 237 255 256 257 275
b 98 9 29 49 67 85 105 123 141 159 161 177 181 197 201 217 221 237 239 257 275 293
b 99 9 29 49 67 85 105 123 125 141 145 161 163 181 185 201 203 221 239 257 275 293
b 100 105 123 125 141 143 145 161 163 181
b 101 125 143 144 145 163
b 102 123 141 142 143 161
b 103 105 123 124 125 143
b 104 143 161 162 163 181
b 105 141 159 161 177 181 197 199 201 217 221 237 239 257
b 106 181 199 201 217 219 221 237 239 257
b 107 201 219 220 221 239
b 108 199 217 218 219 237
b 109 181 199 200 201 219
b 110 219 237 238 239 257
b 111 141 159 161 177 179 181 197 199 217
b 112 179 197 198 199 217
b 113 161 179 180 181 199
b 114 141 159 160 161 179
b 115 159 177 178 179 197
b 116 217 235 236 237 255
b 117 85 103 104 105 123
b 118 25 43 44 45 63
b 119 78 96 97 98 116
b 120 60 78 79 80 98
b 121 42 60 61 62 80
b 122 5 23 24 25 43
b 123 58 77 78 96
b 124 40 58 59 60 78
b 125 22 40 41 42 60
b 126 3 22 39 40 58
b 127 3 21 22 39 40
b 128 168 186 187 188 206
b 129 128 146 147 148 166
b 130 145 163 165 181 183 185 201 203 221
b 131 152 168 170 185 186 188 203 206 221 239 257 275 293
b 132 150 152 168 170 185 186 188 203 221 239 257 275 293
b 133 9 29 49 67 85 105 125 145 163 165 181 185 201 203 221 239 257 275 293
b 134 128 146 148 165 166 168 185 186
b 135 9 29 49 69 76 89 94 108 112 128 130 148 150 152 170
b 136 9 29 49 69 89 108 128 130 148 150 152 168 170
b 137 9 29 49 69 89 108 128 146 148 150 152 165 168 170 185 186
b 138 9 29 49 67 69 85 89 105 108 125 128 145 146 150 152 165 168 170 185 186
b 139 9 29 49 67 85 105 125 145 150 152 165 168 170 185 186 203 221 239 257 275 293
b 140 150 152 165 168 170 185 186 203 221 239 257 275 293
b 141 152 170 185 186 188 203 206 221 239 241 257 261 275 279 293 297
b 142 221 239 241 257 259 261 275 279 293 297
b 143 239 257 259 275 277 279 293 297
b 144 239 257 258 259 277
b 145 259 277 278 279 297
b 146 257 275 277 293 295 297
b 147 257 275 276 277 295
b 148 277 295 296 297
b 149 275 293 294 295
b 150 241 259 260 261 279
b 151 221 239 240 241 259
b 152 152 170 185 186 188 203 206 221 225 241 243 261 279 297
b 153 152 170 188 206 208 225 228 243 261 279 297
b 154 152 170 188 190 208 228
b 155 190 208 209 228
b 156 170 188 189 190 208
b 157 152 170 171 190
b 158 188 206 208 225 226 228 243 261 279 297
b 159 188 206 207 208 226
b 160 208 225 226 228 243 261 279 297 299
b 161 279 297 298 299
b 162 208 225 226 228 243 261 279 281 299
b 163 208 225 226 228 243 261 263 281 299
b 164 208 225 226 228 243 245 263 281 299
b 165 208 226 228 245 246 263 281 299
b 166 228 245 246 263 281 299 301
b 167 281 299 300 301
b 168 228 245 246 263 281 283 301
b 169 228 245 246 263 265 283 301
b 170 228 246 265 266 283 301
b 171 228 246 247 266
b 172 265 266 283 301 302
b 173 265 266 283 284 302
b 174 245 263 264 265 283
b 175 263 281 282 283 301
b 176 208 226 227 228 246
b 177 225 243 244 245 263
b 178 243 261 262 263 281
b 179 261 279 280 281 299
b 180 185 186 203 206 221 223 225 241 243 261
b 181 203 221 222 223 241
b 182 223 241 242 243 261
b 183 185 186 203 205 206 223 225 243
b 184 205 223 224 225 243
b 185 185 203 204 205 223
b 186 163 181 182 183 201
b 187 148 166 167 168 186
b 188 150 168 169 170 188
b 189 76 94 112 130 132 150 152 170
b 190 132 150 151 152 170
b 191 112 130 131 132 150
b 192 76 94 112 114 132 152
b 193 76 94 95 114
b 194 94 112 113 114 132
b 195 114 132 133 152
b 196 130 148 149 150 168
b 197 165 183 184 185 203
b 198 145 163 164 165 183
b 199 183 201 202 203 221
b 200 9 13 29 33 49 51 69 76 89 94 108 112 128 130 148
b 201 9 13 29 31 33 49 51 69
b 202 9 11 13 29 31 49
b 203 9 10 11 29
b 204 11 12 13 31
b 205 11 29 30 31 49
b 206 13 31 32 33 51
b 207 31 49 50 51 69
b 208 13 33 51 69 71 76 89 94 108 112 128 130 148
b 209 51 69 70 71 89
b 210 13 33 51 71 72 76 89 92 94 108 112 128 130 148
b 211 13 33 51 53 71 72 76 92 94 112
b 212 13 33 53 72 74 76 92 94 112
b 213 13 33 53 54 72 74 76 92 94
b 214 54 72 73 74 92
b 215 13 17 33 36 53 54 74 76 94
b 216 13 17 33 35 36 53 54
b 217 13 15 17 33 35 53
b 218 15 33 34 35 53
b 219 13 14 15 33
b 220 15 16 17 35
b 221 17 36 54 56 74 76 94
b 222 56 74 75 76 94
b 223 17 36 56 57 76
b 224 17 36 37 56 57
b 225 36 54 55 56 74
b 226 74 92 93 94 112
b 227 33 51 52 53 71
b 228 71 72 89 92 108 110 112 128 130 148
b 229 71 72 89 90 92 108 110 128
b 230 90 108 109 110 128
b 231 72 90 91 92 110
b 232 110 128 129 130 148
b 233 92 110 111 112 130
b 234 49 67 69 85 89 105 107 108 125 128 145 146
b 235 107 108 125 126 128 145 146
b 236 108 126 127 128 146
b 237 49 67 69 85 87 89 105 107 125
b 238 49 67 68 69 87
b 239 67 85 86 87 105
b 240 69 87 88 89 107
b 241 87 105 106 107 125
b 242 285 303 304
b 243 267 286 287
b 244 18 19 38
1 2
2 4
3 244
3 5
4 127
5 224
6 243
6 8
7 242
7 9
8 86
9 173
10 11
11 126
11 12
12 125
12 13
13 124
13 14
14 123
14 15
15 122
15 16
16 121
16 17
17 120
17 18
18 119
18 19
19 118
19 20
20 30
20 21
21 22
21 25
22 24
22 23
25 27
25 29
25 26
25 28
30 44
30 31
31 33
31 32
31 34
34 43
34 35
34 36
36 38
36 37
36 39
39 42
39 40
39 41
44 51
44 45
45 46
45 48
46 47
48 50
48 49
51 117
51 52
52 91
52 53
53 54
53 65
54 55
54 62
55 61
55 56
55 57
57 58
57 59
57 60
62 64
62 63
65 66
65 73
66 67
66 68
66 69
69 70
69 71
69 72
73 75
73 74
73 76
76 90
76 77
77 89
77 78
78 79
78 84
79 80
80 82
80 81
80 83
84 85
84 87
84 88
85 86
91 93
91 92
93 95
93 94
95 116
95 96
96 98
96 97
98 105
98 99
99 133
99 100
100 102
100 103
100 104
100 101
105 106
105 111
106 110
106 108
106 109
106 107
111 114
111 115
111 113
111 112
126 127
128 131
129 134
130 199
130 186
130 197
130 198
130 133
131 141
131 132
132 188
132 140
133 139
134 187
134 137
135 189
135 200
135 136
136 196
136 137
137 138
138 234
138 139
139 140
141 152
141 142
142 143
142 150
142 151
143 145
143 146
143 144
146 149
146 148
146 147
152 153
152 180
153 154
153 158
154 157
154 155
154 156
158 159
158 160
160 161
160 162
162 179
162 163
163 178
163 164
164 177
164 165
165 176
165 166
166 167
166 168
168 175
168 169
169 174
169 170
170 171
170 172
172 173
180 181
180 182
180 183
183 185
183 184
189 190
189 191
189 192
192 193
192 195
192 194
200 201
200 208
201 206
201 207
201 202
202 203
202 204
202 205
208 209
208 210
210 211
210 228
211 227
211 212
212 226
212 213
213 214
213 215
215 216
215 221
216 217
217 219
217 220
217 218
221 223
221 222
221 225
223 224
228 233
228 232
228 229
229 231
229 230
234 235
234 237
235 236
237 238
237 239
237 240
237 241
